min: c;

c = 2.77995948355383 * u2_t7_h3 + 3.1337335728366 * u2_t7_h4 + 3.9832313205786 * u2_t2_h5 + 3.9832313205786 * u2_t3_h5 + 3.9832313205786 * u2_t7_h5 + 4.33005468535888 * u2_t2_h6 + 4.33005468535888 * u2_t3_h6 + 4.33005468535888 * u2_t4_h6 + 4.33005468535888 * u2_t7_h6 + 4.33005468535888 * u2_t10_h6 + 3.69889330587402 * u2_t2_h7 + 3.69889330587402 * u2_t3_h7 + 3.69889330587402 * u2_t4_h7 + 3.69889330587402 * u2_t7_h7 + 3.69889330587402 * u2_t10_h7 + 5.61715057384098 * u2_t2_h8 + 5.61715057384098 * u2_t3_h8 + 5.61715057384098 * u2_t4_h8 + 5.61715057384098 * u2_t7_h8 + 5.61715057384098 * u2_t10_h8 + 5.37183747835867 * u2_t2_h9 + 5.37183747835867 * u2_t3_h9 + 5.37183747835867 * u2_t4_h9 + 5.37183747835867 * u2_t7_h9 + 5.37183747835867 * u2_t10_h9 + 5.6818539225781 * u2_t2_h10 + 5.6818539225781 * u2_t3_h10 + 5.6818539225781 * u2_t4_h10 + 5.6818539225781 * u2_t7_h10 + 5.6818539225781 * u2_t10_h10 + 3.78844489954937 * u2_t1_h11 + 3.78844489954937 * u2_t2_h11 + 3.78844489954937 * u2_t3_h11 + 3.78844489954937 * u2_t4_h11 + 3.78844489954937 * u2_t7_h11 + 3.78844489954937 * u2_t10_h11 + 6.4957334669762 * u2_t1_h12 + 6.4957334669762 * u2_t3_h12 + 6.4957334669762 * u2_t4_h12 + 6.4957334669762 * u2_t7_h12 + 4.60248655012934 * u2_t1_h13 + 4.60248655012934 * u2_t3_h13 + 4.60248655012934 * u2_t4_h13 + 4.60248655012934 * u2_t7_h13 + 4.60248655012934 * u2_t9_h13 + 5.77641880552929 * u2_t1_h14 + 5.77641880552929 * u2_t3_h14 + 5.77641880552929 * u2_t4_h14 + 5.77641880552929 * u2_t7_h14 + 5.77641880552929 * u2_t9_h14 + 6.25928846041428 * u2_t1_h15 + 6.25928846041428 * u2_t3_h15 + 6.25928846041428 * u2_t4_h15 + 6.25928846041428 * u2_t7_h15 + 6.25928846041428 * u2_t9_h15 + 5.9116246685878 * u2_t1_h16 + 5.9116246685878 * u2_t3_h16 + 5.9116246685878 * u2_t4_h16 + 5.9116246685878 * u2_t7_h16 + 5.9116246685878 * u2_t9_h16 + 6.07955715418735 * u2_t1_h17 + 6.07955715418735 * u2_t3_h17 + 6.07955715418735 * u2_t4_h17 + 6.07955715418735 * u2_t7_h17 + 6.07955715418735 * u2_t9_h17 + 6.00095784297819 * u2_t1_h18 + 6.00095784297819 * u2_t3_h18 + 6.00095784297819 * u2_t4_h18 + 6.00095784297819 * u2_t6_h18 + 6.00095784297819 * u2_t7_h18 + 5.33718743448045 * u2_t1_h19 + 5.33718743448045 * u2_t3_h19 + 5.33718743448045 * u2_t4_h19 + 5.33718743448045 * u2_t5_h19 + 5.33718743448045 * u2_t6_h19 + 5.33718743448045 * u2_t7_h19 + 5.08914263657113 * u2_t1_h20 + 5.08914263657113 * u2_t3_h20 + 5.08914263657113 * u2_t4_h20 + 5.08914263657113 * u2_t6_h20 + 5.08914263657113 * u2_t7_h20 + 5.21132875282879 * u2_t1_h21 + 5.21132875282879 * u2_t3_h21 + 5.21132875282879 * u2_t6_h21 + 5.21132875282879 * u2_t7_h21 + 5.21132875282879 * u2_t8_h21 + 6.04420749805668 * u2_t1_h22 + 6.04420749805668 * u2_t3_h22 + 6.04420749805668 * u2_t7_h22 + 6.04420749805668 * u2_t8_h22 + 5.82288959604281 * u2_t3_h23 + 5.82288959604281 * u2_t7_h23 + 5.82288959604281 * u2_t8_h23;
0 <= u2_t1_h11 <= 1;
0 <= u2_t1_h12 <= 1;
0 <= u2_t1_h13 <= 1;
0 <= u2_t1_h14 <= 1;
0 <= u2_t1_h15 <= 1;
0 <= u2_t1_h16 <= 1;
0 <= u2_t1_h17 <= 1;
0 <= u2_t1_h18 <= 1;
0 <= u2_t1_h19 <= 1;
0 <= u2_t1_h20 <= 1;
0 <= u2_t1_h21 <= 1;
0 <= u2_t1_h22 <= 1;
u2_t1_h11 + u2_t1_h12 + u2_t1_h13 + u2_t1_h14 + u2_t1_h15 + u2_t1_h16 + u2_t1_h17 + u2_t1_h18 + u2_t1_h19 + u2_t1_h20 + u2_t1_h21 + u2_t1_h22 = 2;
0 <= u2_t2_h5 <= 1;
0 <= u2_t2_h6 <= 1;
0 <= u2_t2_h7 <= 1;
0 <= u2_t2_h8 <= 1;
0 <= u2_t2_h9 <= 1;
0 <= u2_t2_h10 <= 1;
0 <= u2_t2_h11 <= 1;
u2_t2_h5 + u2_t2_h6 + u2_t2_h7 + u2_t2_h8 + u2_t2_h9 + u2_t2_h10 + u2_t2_h11 = 2;
0 <= u2_t3_h5 <= 1;
0 <= u2_t3_h6 <= 1;
0 <= u2_t3_h7 <= 1;
0 <= u2_t3_h8 <= 1;
0 <= u2_t3_h9 <= 1;
0 <= u2_t3_h10 <= 1;
0 <= u2_t3_h11 <= 1;
0 <= u2_t3_h12 <= 1;
0 <= u2_t3_h13 <= 1;
0 <= u2_t3_h14 <= 1;
0 <= u2_t3_h15 <= 1;
0 <= u2_t3_h16 <= 1;
0 <= u2_t3_h17 <= 1;
0 <= u2_t3_h18 <= 1;
0 <= u2_t3_h19 <= 1;
0 <= u2_t3_h20 <= 1;
0 <= u2_t3_h21 <= 1;
0 <= u2_t3_h22 <= 1;
0 <= u2_t3_h23 <= 1;
u2_t3_h5 + u2_t3_h6 + u2_t3_h7 + u2_t3_h8 + u2_t3_h9 + u2_t3_h10 + u2_t3_h11 + u2_t3_h12 + u2_t3_h13 + u2_t3_h14 + u2_t3_h15 + u2_t3_h16 + u2_t3_h17 + u2_t3_h18 + u2_t3_h19 + u2_t3_h20 + u2_t3_h21 + u2_t3_h22 + u2_t3_h23 = 1;
0 <= u2_t4_h6 <= 1;
0 <= u2_t4_h7 <= 1;
0 <= u2_t4_h8 <= 1;
0 <= u2_t4_h9 <= 1;
0 <= u2_t4_h10 <= 1;
0 <= u2_t4_h11 <= 1;
0 <= u2_t4_h12 <= 1;
0 <= u2_t4_h13 <= 1;
0 <= u2_t4_h14 <= 1;
0 <= u2_t4_h15 <= 1;
0 <= u2_t4_h16 <= 1;
0 <= u2_t4_h17 <= 1;
0 <= u2_t4_h18 <= 1;
0 <= u2_t4_h19 <= 1;
0 <= u2_t4_h20 <= 1;
u2_t4_h6 + u2_t4_h7 + u2_t4_h8 + u2_t4_h9 + u2_t4_h10 + u2_t4_h11 + u2_t4_h12 + u2_t4_h13 + u2_t4_h14 + u2_t4_h15 + u2_t4_h16 + u2_t4_h17 + u2_t4_h18 + u2_t4_h19 + u2_t4_h20 = 3;
0 <= u2_t5_h19 <= 1;
u2_t5_h19 = 1;
0 <= u2_t6_h18 <= 1;
0 <= u2_t6_h19 <= 1;
0 <= u2_t6_h20 <= 1;
0 <= u2_t6_h21 <= 1;
u2_t6_h18 + u2_t6_h19 + u2_t6_h20 + u2_t6_h21 = 2;
0 <= u2_t7_h3 <= 1;
0 <= u2_t7_h4 <= 1;
0 <= u2_t7_h5 <= 1;
0 <= u2_t7_h6 <= 1;
0 <= u2_t7_h7 <= 1;
0 <= u2_t7_h8 <= 1;
0 <= u2_t7_h9 <= 1;
0 <= u2_t7_h10 <= 1;
0 <= u2_t7_h11 <= 1;
0 <= u2_t7_h12 <= 1;
0 <= u2_t7_h13 <= 1;
0 <= u2_t7_h14 <= 1;
0 <= u2_t7_h15 <= 1;
0 <= u2_t7_h16 <= 1;
0 <= u2_t7_h17 <= 1;
0 <= u2_t7_h18 <= 1;
0 <= u2_t7_h19 <= 1;
0 <= u2_t7_h20 <= 1;
0 <= u2_t7_h21 <= 1;
0 <= u2_t7_h22 <= 1;
0 <= u2_t7_h23 <= 1;
u2_t7_h3 + u2_t7_h4 + u2_t7_h5 + u2_t7_h6 + u2_t7_h7 + u2_t7_h8 + u2_t7_h9 + u2_t7_h10 + u2_t7_h11 + u2_t7_h12 + u2_t7_h13 + u2_t7_h14 + u2_t7_h15 + u2_t7_h16 + u2_t7_h17 + u2_t7_h18 + u2_t7_h19 + u2_t7_h20 + u2_t7_h21 + u2_t7_h22 + u2_t7_h23 = 3;
0 <= u2_t8_h21 <= 1;
0 <= u2_t8_h22 <= 1;
0 <= u2_t8_h23 <= 1;
u2_t8_h21 + u2_t8_h22 + u2_t8_h23 = 2;
0 <= u2_t9_h13 <= 1;
0 <= u2_t9_h14 <= 1;
0 <= u2_t9_h15 <= 1;
0 <= u2_t9_h16 <= 1;
0 <= u2_t9_h17 <= 1;
u2_t9_h13 + u2_t9_h14 + u2_t9_h15 + u2_t9_h16 + u2_t9_h17 = 1;
0 <= u2_t10_h6 <= 1;
0 <= u2_t10_h7 <= 1;
0 <= u2_t10_h8 <= 1;
0 <= u2_t10_h9 <= 1;
0 <= u2_t10_h10 <= 1;
0 <= u2_t10_h11 <= 1;
u2_t10_h6 + u2_t10_h7 + u2_t10_h8 + u2_t10_h9 + u2_t10_h10 + u2_t10_h11 = 2;
